########################################
# LAMMPS INPUT SCRIPT
# Input file for uniaxial tensile loading of single crystal aluminum
# Mark Tschopp


# System setup
atom_style  full
units   real
dimension 3
boundary p p p
neighbor        3.0 bin
neigh_modify	every 1 delay 0 check yes

# Define interaction parameters
pair_style       lj/class2/coul/long 10.0
pair_modify      shift no mix sixthpower
kspace_style     pppm 1.0e-4
kspace_modify    mesh 24 24 24 order 4
#kspace_modify    slab 3.0
bond_style       class2
angle_style      class2
dihedral_style   class2
improper_style   class2
special_bonds    lj 0 0 1 coul 0 0 1 dihedral yes

# Read/analyze init geometry
read_data npt_equil.data
#
#######################################
# EQUILIBRATION
reset_timestep 0
timestep 1.0
velocity all create 300 12345 mom yes rot no
#fix 1 all npt temp 300 300 100 iso 0 0 1 drag 1 
fix 1 all npt temp 300 300 100 iso 0 0 1000
# Set thermo output
thermo 100
thermo_style custom step lx ly lz press pxx pyy pzz pe temp
log npt.log

# Run for at least 10 picosecond (assuming 1 fs timestep)
run 20000000
unfix 1

write_data npt.data

print "All done"
